<number of tasks>
28

<cycle time>
324

<task times>
1 70
2 59
3 33
4 6
5 1
6 27
7 17
8 62
9 31
10 53
11 21
12 19
13 108
14 52
15 5
16 8
17 97
18 8
19 47
20 67
21 17
22 8
23 3
24 21
25 107
26 3
27 2
28 72

<precedence relations>
1,2
1,3
1,4
1,5
1,8
1,19
1,21
1,22
1,23
1,24
1,26
2,6
2,17
3,28
4,28
5,28
6,7
7,18
8,9
9,10
10,11
10,12
11,15
12,13
13,14
13,16
14,28
15,28
16,28
17,28
18,28
19,20
20,28
21,28
22,28
23,28
24,25
25,28
26,27
27,28

<setup times forward>
1,2:11
1,3:4
1,4:4
1,5:3
1,8:9
1,19:3
1,21:7
1,22:9
1,23:7
1,24:2
1,26:10
2,3:15
2,4:7
2,5:8
2,6:17
2,8:20
2,9:5
2,10:15
2,11:23
2,12:12
2,13:8
2,14:3
2,15:25
2,16:23
2,17:1
2,19:8
2,20:3
2,21:4
2,22:20
2,23:4
2,24:13
2,25:15
2,26:21
2,27:26
3,2:15
3,4:8
3,5:7
3,6:2
3,7:4
3,8:5
3,9:10
3,11:8
3,12:3
3,13:7
3,14:12
3,15:10
3,16:8
3,17:14
3,18:2
3,19:7
3,20:12
3,21:11
3,22:5
3,23:11
3,24:2
3,26:6
3,27:11
3,28:7
4,2:7
4,3:8
4,5:1
4,6:10
4,7:4
4,8:13
4,9:2
4,10:8
4,11:16
4,12:5
4,13:1
4,14:4
4,15:18
4,16:16
4,17:6
4,18:6
4,19:1
4,20:4
4,21:3
4,22:13
4,23:3
4,24:6
4,25:8
4,26:14
4,27:19
4,28:1
5,2:8
5,3:7
5,4:1
5,6:9
5,7:3
5,8:12
5,9:3
5,10:7
5,11:15
5,12:4
5,14:5
5,15:17
5,16:15
5,17:7
5,18:5
5,20:5
5,21:4
5,22:12
5,23:4
5,24:5
5,25:7
5,26:13
5,27:18
6,3:2
6,4:10
6,5:9
6,7:6
6,8:3
6,9:12
6,10:2
6,11:6
6,12:5
6,13:9
6,14:14
6,15:8
6,16:6
6,17:16
6,19:9
6,20:14
6,21:13
6,22:3
6,23:13
6,24:4
6,25:2
6,26:4
6,27:9
7,3:4
7,4:4
7,5:3
7,8:9
7,9:6
7,10:4
7,11:12
7,12:1
7,13:3
7,14:8
7,15:14
7,16:12
7,17:10
7,18:2
7,19:3
7,20:8
7,21:7
7,22:9
7,23:7
7,24:2
7,25:4
7,26:10
7,27:15
8,2:20
8,3:5
8,4:13
8,5:12
8,6:3
8,7:9
8,9:15
8,17:19
8,18:7
8,19:12
8,20:17
8,21:16
8,23:16
8,24:7
8,25:5
8,26:1
8,27:6
9,2:5
9,3:10
9,4:2
9,5:3
9,6:12
9,7:6
9,10:10
9,17:4
9,18:8
9,19:3
9,20:2
9,21:1
9,22:15
9,23:1
9,24:8
9,25:10
9,26:16
9,27:21
10,2:15
10,4:8
10,5:7
10,6:2
10,7:4
10,11:8
10,12:3
10,17:14
10,18:2
10,19:7
10,20:12
10,21:11
10,22:5
10,23:11
10,24:2
10,26:6
10,27:11
11,2:23
11,3:8
11,4:16
11,5:15
11,6:6
11,7:12
11,12:11
11,13:15
11,14:20
11,15:2
11,17:22
11,18:10
11,19:15
11,20:20
11,21:19
11,22:3
11,23:19
11,24:10
11,25:8
11,26:2
11,27:3
12,2:12
12,3:3
12,4:5
12,5:4
12,6:5
12,7:1
12,11:11
12,13:4
12,15:13
12,17:11
12,18:1
12,19:4
12,20:9
12,21:8
12,22:8
12,23:8
12,24:1
12,25:3
12,26:9
12,27:14
13,2:8
13,3:7
13,4:1
13,6:9
13,7:3
13,11:15
13,14:5
13,15:17
13,16:15
13,17:7
13,18:5
13,20:5
13,21:4
13,22:12
13,23:4
13,24:5
13,25:7
13,26:13
13,27:18
14,2:3
14,3:12
14,4:4
14,5:5
14,6:14
14,7:8
14,11:20
14,15:22
14,16:20
14,17:2
14,18:10
14,19:5
14,21:1
14,22:17
14,23:1
14,24:10
14,25:12
14,26:18
14,27:23
14,28:5
15,2:25
15,3:10
15,4:18
15,5:17
15,6:8
15,7:14
15,12:13
15,13:17
15,14:22
15,16:2
15,17:24
15,18:12
15,19:17
15,20:22
15,21:21
15,22:5
15,23:21
15,24:12
15,25:10
15,26:4
15,27:1
15,28:17
16,2:23
16,3:8
16,4:16
16,5:15
16,6:6
16,7:12
16,14:20
16,15:2
16,17:22
16,18:10
16,19:15
16,20:20
16,21:19
16,22:3
16,23:19
16,24:10
16,25:8
16,26:2
16,27:3
16,28:15
17,3:14
17,4:6
17,5:7
17,6:16
17,7:10
17,8:19
17,9:4
17,10:14
17,11:22
17,12:11
17,13:7
17,14:2
17,15:24
17,16:22
17,18:12
17,19:7
17,20:2
17,21:3
17,22:19
17,23:3
17,24:12
17,25:14
17,26:20
17,27:25
17,28:7
18,3:2
18,4:6
18,5:5
18,8:7
18,9:8
18,10:2
18,11:10
18,12:1
18,13:5
18,14:10
18,15:12
18,16:10
18,17:12
18,19:5
18,20:10
18,21:9
18,22:7
18,23:9
18,25:2
18,26:8
18,27:13
18,28:5
19,2:8
19,3:7
19,4:1
19,6:9
19,7:3
19,8:12
19,9:3
19,10:7
19,11:15
19,12:4
19,14:5
19,15:17
19,16:15
19,17:7
19,18:5
19,20:5
19,21:4
19,22:12
19,23:4
19,24:5
19,25:7
19,26:13
19,27:18
20,2:3
20,3:12
20,4:4
20,5:5
20,6:14
20,7:8
20,8:17
20,9:2
20,10:12
20,11:20
20,12:9
20,13:5
20,15:22
20,16:20
20,17:2
20,18:10
20,21:1
20,22:17
20,23:1
20,24:10
20,25:12
20,26:18
20,27:23
20,28:5
21,2:4
21,3:11
21,4:3
21,5:4
21,6:13
21,7:7
21,8:16
21,9:1
21,10:11
21,11:19
21,12:8
21,13:4
21,14:1
21,15:21
21,16:19
21,17:3
21,18:9
21,19:4
21,20:1
21,22:16
21,24:9
21,25:11
21,26:17
21,27:22
21,28:4
22,2:20
22,3:5
22,4:13
22,5:12
22,6:3
22,7:9
22,9:15
22,10:5
22,11:3
22,12:8
22,13:12
22,14:17
22,15:5
22,16:3
22,17:19
22,18:7
22,19:12
22,20:17
22,21:16
22,23:16
22,24:7
22,25:5
22,26:1
22,27:6
22,28:12
23,2:4
23,3:11
23,4:3
23,5:4
23,6:13
23,7:7
23,8:16
23,9:1
23,10:11
23,11:19
23,12:8
23,13:4
23,14:1
23,15:21
23,16:19
23,17:3
23,18:9
23,19:4
23,20:1
23,22:16
23,24:9
23,25:11
23,26:17
23,27:22
23,28:4
24,2:13
24,3:2
24,4:6
24,5:5
24,6:4
24,7:2
24,8:7
24,9:8
24,10:2
24,11:10
24,12:1
24,13:5
24,14:10
24,15:12
24,16:10
24,17:12
24,19:5
24,20:10
24,21:9
24,22:7
24,23:9
24,25:2
24,26:8
24,27:13
25,2:15
25,4:8
25,5:7
25,6:2
25,7:4
25,8:5
25,9:10
25,11:8
25,12:3
25,13:7
25,14:12
25,15:10
25,16:8
25,17:14
25,18:2
25,19:7
25,20:12
25,21:11
25,22:5
25,23:11
25,26:6
25,27:11
25,28:7
26,2:21
26,3:6
26,4:14
26,5:13
26,6:4
26,7:10
26,8:1
26,9:16
26,10:6
26,11:2
26,12:9
26,13:13
26,14:18
26,15:4
26,16:2
26,17:20
26,18:8
26,19:13
26,20:18
26,21:17
26,22:1
26,23:17
26,24:8
26,25:6
26,27:5
27,2:26
27,3:11
27,4:19
27,5:18
27,6:9
27,7:15
27,8:6
27,9:21
27,10:11
27,11:3
27,12:14
27,13:18
27,14:23
27,15:1
27,16:3
27,17:25
27,18:13
27,19:18
27,20:23
27,21:22
27,22:6
27,23:22
27,24:13
27,25:11
27,28:18

<setup times backward>
1,1:27
2,1:38
2,2:27
2,3:42
2,4:34
2,5:35
2,8:47
2,9:32
2,10:42
2,11:50
2,12:39
2,13:35
2,14:30
2,15:52
2,16:50
2,19:35
2,20:30
2,21:31
2,22:47
2,23:31
2,24:40
2,25:42
2,26:48
2,27:53
3,1:23
3,2:12
3,3:27
3,4:19
3,5:20
3,6:29
3,7:23
3,8:32
3,9:17
3,10:27
3,11:35
3,12:24
3,13:20
3,14:15
3,15:37
3,16:35
3,17:13
3,18:25
3,19:20
3,20:15
3,21:16
3,22:32
3,23:16
3,24:25
3,25:27
3,26:33
3,27:38
4,1:31
4,2:20
4,3:35
4,4:27
4,5:28
4,6:37
4,7:31
4,8:40
4,9:25
4,10:35
4,11:43
4,12:32
4,13:28
4,14:23
4,15:45
4,16:43
4,17:21
4,18:33
4,19:28
4,20:23
4,21:24
4,22:40
4,23:24
4,24:33
4,25:35
4,26:41
4,27:46
5,1:30
5,2:19
5,3:34
5,4:26
5,5:27
5,6:36
5,7:30
5,8:39
5,9:24
5,10:34
5,11:42
5,12:31
5,13:27
5,14:22
5,15:44
5,16:42
5,17:20
5,18:32
5,19:27
5,20:22
5,21:23
5,22:39
5,23:23
5,24:32
5,25:34
5,26:40
5,27:45
6,1:21
6,2:10
6,3:25
6,4:17
6,5:18
6,6:27
6,8:30
6,9:15
6,10:25
6,11:33
6,12:22
6,13:18
6,14:13
6,15:35
6,16:33
6,17:11
6,19:18
6,20:13
6,21:14
6,22:30
6,23:14
6,24:23
6,25:25
6,26:31
6,27:36
7,1:27
7,2:16
7,3:31
7,4:23
7,5:24
7,6:33
7,7:27
7,8:36
7,9:21
7,10:31
7,11:39
7,12:28
7,13:24
7,14:19
7,15:41
7,16:39
7,17:17
7,19:24
7,20:19
7,21:20
7,22:36
7,23:20
7,24:29
7,25:31
7,26:37
7,27:42
8,1:18
8,2:7
8,3:22
8,4:14
8,5:15
8,6:24
8,7:18
8,8:27
8,17:8
8,18:20
8,19:15
8,20:10
8,21:11
8,22:27
8,23:11
8,24:20
8,25:22
8,26:28
8,27:33
9,1:33
9,2:22
9,3:37
9,4:29
9,5:30
9,6:39
9,7:33
9,8:42
9,9:27
9,17:23
9,18:35
9,19:30
9,20:25
9,21:26
9,22:42
9,23:26
9,24:35
9,25:37
9,26:43
9,27:48
10,1:23
10,2:12
10,3:27
10,4:19
10,5:20
10,6:29
10,7:23
10,8:32
10,9:17
10,10:27
10,17:13
10,18:25
10,19:20
10,20:15
10,21:16
10,22:32
10,23:16
10,24:25
10,25:27
10,26:33
10,27:38
11,1:15
11,2:4
11,3:19
11,4:11
11,5:12
11,6:21
11,7:15
11,8:24
11,9:9
11,10:19
11,11:27
11,12:16
11,13:12
11,14:7
11,16:27
11,17:5
11,18:17
11,19:12
11,20:7
11,21:8
11,22:24
11,23:8
11,24:17
11,25:19
11,26:25
11,27:30
12,1:26
12,2:15
12,3:30
12,4:22
12,5:23
12,6:32
12,7:26
12,8:35
12,9:20
12,10:30
12,11:38
12,12:27
12,15:40
12,17:16
12,18:28
12,19:23
12,20:18
12,21:19
12,22:35
12,23:19
12,24:28
12,25:30
12,26:36
12,27:41
13,1:30
13,2:19
13,3:34
13,4:26
13,5:27
13,6:36
13,7:30
13,8:39
13,9:24
13,10:34
13,11:42
13,12:31
13,13:27
13,15:44
13,17:20
13,18:32
13,19:27
13,20:22
13,21:23
13,22:39
13,23:23
13,24:32
13,25:34
13,26:40
13,27:45
14,1:35
14,2:24
14,3:39
14,4:31
14,5:32
14,6:41
14,7:35
14,8:44
14,9:29
14,10:39
14,11:47
14,12:36
14,13:32
14,14:27
14,15:49
14,16:47
14,17:25
14,18:37
14,19:32
14,20:27
14,21:28
14,22:44
14,23:28
14,24:37
14,25:39
14,26:45
14,27:50
15,1:13
15,2:2
15,3:17
15,4:9
15,5:10
15,6:19
15,7:13
15,8:22
15,9:7
15,10:17
15,11:25
15,12:14
15,13:10
15,14:5
15,15:27
15,16:25
15,17:3
15,18:15
15,19:10
15,20:5
15,21:6
15,22:22
15,23:6
15,24:15
15,25:17
15,26:23
15,27:28
16,1:15
16,2:4
16,3:19
16,4:11
16,5:12
16,6:21
16,7:15
16,8:24
16,9:9
16,10:19
16,11:27
16,12:16
16,13:12
16,14:7
16,15:29
16,16:27
16,17:5
16,18:17
16,19:12
16,20:7
16,21:8
16,22:24
16,23:8
16,24:17
16,25:19
16,26:25
16,27:30
17,1:37
17,2:26
17,3:41
17,4:33
17,5:34
17,6:43
17,7:37
17,8:46
17,9:31
17,10:41
17,11:49
17,12:38
17,13:34
17,14:29
17,15:51
17,16:49
17,17:27
17,18:39
17,19:34
17,20:29
17,21:30
17,22:46
17,23:30
17,24:39
17,25:41
17,26:47
17,27:52
18,1:25
18,2:14
18,3:29
18,4:21
18,5:22
18,6:31
18,7:25
18,8:34
18,9:19
18,10:29
18,11:37
18,12:26
18,13:22
18,14:17
18,15:39
18,16:37
18,17:15
18,18:27
18,19:22
18,20:17
18,21:18
18,22:34
18,23:18
18,24:27
18,25:29
18,26:35
18,27:40
19,1:30
19,2:19
19,3:34
19,4:26
19,5:27
19,6:36
19,7:30
19,8:39
19,9:24
19,10:34
19,11:42
19,12:31
19,13:27
19,14:22
19,15:44
19,16:42
19,17:20
19,18:32
19,19:27
19,21:23
19,22:39
19,23:23
19,24:32
19,25:34
19,26:40
19,27:45
20,1:35
20,2:24
20,3:39
20,4:31
20,5:32
20,6:41
20,7:35
20,8:44
20,9:29
20,10:39
20,11:47
20,12:36
20,13:32
20,14:27
20,15:49
20,16:47
20,17:25
20,18:37
20,19:32
20,20:27
20,21:28
20,22:44
20,23:28
20,24:37
20,25:39
20,26:45
20,27:50
21,1:34
21,2:23
21,3:38
21,4:30
21,5:31
21,6:40
21,7:34
21,8:43
21,9:28
21,10:38
21,11:46
21,12:35
21,13:31
21,14:26
21,15:48
21,16:46
21,17:24
21,18:36
21,19:31
21,20:26
21,21:27
21,22:43
21,23:27
21,24:36
21,25:38
21,26:44
21,27:49
22,1:18
22,2:7
22,3:22
22,4:14
22,5:15
22,6:24
22,7:18
22,8:27
22,9:12
22,10:22
22,11:30
22,12:19
22,13:15
22,14:10
22,15:32
22,16:30
22,17:8
22,18:20
22,19:15
22,20:10
22,21:11
22,22:27
22,23:11
22,24:20
22,25:22
22,26:28
22,27:33
23,1:34
23,2:23
23,3:38
23,4:30
23,5:31
23,6:40
23,7:34
23,8:43
23,9:28
23,10:38
23,11:46
23,12:35
23,13:31
23,14:26
23,15:48
23,16:46
23,17:24
23,18:36
23,19:31
23,20:26
23,21:27
23,22:43
23,23:27
23,24:36
23,25:38
23,26:44
23,27:49
24,1:25
24,2:14
24,3:29
24,4:21
24,5:22
24,6:31
24,7:25
24,8:34
24,9:19
24,10:29
24,11:37
24,12:26
24,13:22
24,14:17
24,15:39
24,16:37
24,17:15
24,18:27
24,19:22
24,20:17
24,21:18
24,22:34
24,23:18
24,24:27
24,26:35
24,27:40
25,1:23
25,2:12
25,3:27
25,4:19
25,5:20
25,6:29
25,7:23
25,8:32
25,9:17
25,10:27
25,11:35
25,12:24
25,13:20
25,14:15
25,15:37
25,16:35
25,17:13
25,18:25
25,19:20
25,20:15
25,21:16
25,22:32
25,23:16
25,24:25
25,25:27
25,26:33
25,27:38
26,1:17
26,2:6
26,3:21
26,4:13
26,5:14
26,6:23
26,7:17
26,8:26
26,9:11
26,10:21
26,11:29
26,12:18
26,13:14
26,14:9
26,15:31
26,16:29
26,17:7
26,18:19
26,19:14
26,20:9
26,21:10
26,22:26
26,23:10
26,24:19
26,25:21
26,26:27
27,1:12
27,2:1
27,3:16
27,4:8
27,5:9
27,6:18
27,7:12
27,8:21
27,9:6
27,10:16
27,11:24
27,12:13
27,13:9
27,14:4
27,15:26
27,16:24
27,17:2
27,18:14
27,19:9
27,20:4
27,21:5
27,22:21
27,23:5
27,24:14
27,25:16
27,26:22
27,27:27
28,1:30
28,2:19
28,3:34
28,4:26
28,5:27
28,6:36
28,7:30
28,8:39
28,9:24
28,10:34
28,11:42
28,12:31
28,13:27
28,14:22
28,15:44
28,16:42
28,17:20
28,18:32
28,19:27
28,20:22
28,21:23
28,22:39
28,23:23
28,24:32
28,25:34
28,26:40
28,27:45
28,28:27

<end>

<optimal SALBP-1 value>
4


<rand seed>
467321153

